language ESSENCE' 1.0

letting C_FunctionND be
        [[0, 0, 0, 0, 0, 0, 0, 0, 0, 0, 0, 0; int(0..11)], [1, 0, 0, 0, 0, 0, 0, 0, 0, 0, 0, 0; int(0..11)],
         [1, 0, 0, 0, 0, 0, 0, 0, 0, 0, 0, 0; int(0..11)], [1, 0, 0, 0, 0, 0, 0, 0, 0, 0, 0, 0; int(0..11)],
         [1, 0, 0, 0, 0, 0, 0, 0, 0, 0, 0, 0; int(0..11)], [0, 1, 1, 0, 0, 0, 0, 0, 0, 0, 0, 0; int(0..11)],
         [0, 0, 0, 1, 1, 0, 0, 0, 0, 0, 0, 0; int(0..11)], [0, 0, 1, 0, 1, 0, 0, 0, 0, 0, 0, 0; int(0..11)],
         [0, 0, 1, 1, 0, 0, 0, 0, 0, 0, 0, 0; int(0..11)], [0, 1, 0, 0, 1, 0, 0, 0, 0, 0, 0, 0; int(0..11)],
         [0, 1, 0, 1, 0, 0, 0, 0, 0, 0, 0, 0; int(0..11)], [0, 0, 0, 0, 0, 1, 1, 1, 1, 1, 1, 0; int(0..11)];
             int(0..11)]
$ Visualisation for C_FunctionND
$ 0 0 0 0 0 0 0 0 0 0 0 0
$ 1 0 0 0 0 0 0 0 0 0 0 0
$ 1 0 0 0 0 0 0 0 0 0 0 0
$ 1 0 0 0 0 0 0 0 0 0 0 0
$ 1 0 0 0 0 0 0 0 0 0 0 0
$ 0 1 1 0 0 0 0 0 0 0 0 0
$ 0 0 0 1 1 0 0 0 0 0 0 0
$ 0 0 1 0 1 0 0 0 0 0 0 0
$ 0 0 1 1 0 0 0 0 0 0 0 0
$ 0 1 0 0 1 0 0 0 0 0 0 0
$ 0 1 0 1 0 0 0 0 0 0 0 0
$ 0 0 0 0 0 1 1 1 1 1 1 0

letting J_FunctionND be
        [[0, 1, 2, 3, 4, 5, 6, 7, 8, 9, 10, 11; int(0..11)], [1, 1, 5, 10, 9, 5, 11, 11, 11, 9, 10, 11; int(0..11)],
         [2, 5, 2, 8, 7, 5, 11, 7, 8, 11, 11, 11; int(0..11)], [3, 10, 8, 3, 6, 11, 6, 11, 8, 11, 10, 11; int(0..11)],
         [4, 9, 7, 6, 4, 11, 6, 7, 11, 9, 11, 11; int(0..11)], [5, 5, 5, 11, 11, 5, 11, 11, 11, 11, 11, 11; int(0..11)],
         [6, 11, 11, 6, 6, 11, 6, 11, 11, 11, 11, 11; int(0..11)],
         [7, 11, 7, 11, 7, 11, 11, 7, 11, 11, 11, 11; int(0..11)],
         [8, 11, 8, 8, 11, 11, 11, 11, 8, 11, 11, 11; int(0..11)],
         [9, 9, 11, 11, 9, 11, 11, 11, 11, 9, 11, 11; int(0..11)],
         [10, 10, 11, 10, 11, 11, 11, 11, 11, 11, 10, 11; int(0..11)],
         [11, 11, 11, 11, 11, 11, 11, 11, 11, 11, 11, 11; int(0..11)];
             int(0..11)]
$ Visualisation for J_FunctionND
$  0  1  2  3  4  5  6  7  8  9 10 11
$  1  1  5 10  9  5 11 11 11  9 10 11
$  2  5  2  8  7  5 11  7  8 11 11 11
$  3 10  8  3  6 11  6 11  8 11 10 11
$  4  9  7  6  4 11  6  7 11  9 11 11
$  5  5  5 11 11  5 11 11 11 11 11 11
$  6 11 11  6  6 11  6 11 11 11 11 11
$  7 11  7 11  7 11 11  7 11 11 11 11
$  8 11  8  8 11 11 11 11  8 11 11 11
$  9  9 11 11  9 11 11 11 11  9 11 11
$ 10 10 11 10 11 11 11 11 11 11 10 11
$ 11 11 11 11 11 11 11 11 11 11 11 11

letting M_FunctionND be
        [[0, 0, 0, 0, 0, 0, 0, 0, 0, 0, 0, 0; int(0..11)], [0, 1, 0, 0, 0, 1, 0, 0, 0, 1, 1, 1; int(0..11)],
         [0, 0, 2, 0, 0, 2, 0, 2, 2, 0, 0, 2; int(0..11)], [0, 0, 0, 3, 0, 0, 3, 0, 3, 0, 3, 3; int(0..11)],
         [0, 0, 0, 0, 4, 0, 4, 4, 0, 4, 0, 4; int(0..11)], [0, 1, 2, 0, 0, 5, 0, 2, 2, 1, 1, 5; int(0..11)],
         [0, 0, 0, 3, 4, 0, 6, 4, 3, 4, 3, 6; int(0..11)], [0, 0, 2, 0, 4, 2, 4, 7, 2, 4, 0, 7; int(0..11)],
         [0, 0, 2, 3, 0, 2, 3, 2, 8, 0, 3, 8; int(0..11)], [0, 1, 0, 0, 4, 1, 4, 4, 0, 9, 1, 9; int(0..11)],
         [0, 1, 0, 3, 0, 1, 3, 0, 3, 1, 10, 10; int(0..11)], [0, 1, 2, 3, 4, 5, 6, 7, 8, 9, 10, 11; int(0..11)];
             int(0..11)]
$ Visualisation for M_FunctionND
$  0  0  0  0  0  0  0  0  0  0  0  0
$  0  1  0  0  0  1  0  0  0  1  1  1
$  0  0  2  0  0  2  0  2  2  0  0  2
$  0  0  0  3  0  0  3  0  3  0  3  3
$  0  0  0  0  4  0  4  4  0  4  0  4
$  0  1  2  0  0  5  0  2  2  1  1  5
$  0  0  0  3  4  0  6  4  3  4  3  6
$  0  0  2  0  4  2  4  7  2  4  0  7
$  0  0  2  3  0  2  3  2  8  0  3  8
$  0  1  0  0  4  1  4  4  0  9  1  9
$  0  1  0  3  0  1  3  0  3  1 10 10
$  0  1  2  3  4  5  6  7  8  9 10 11

letting R_Function1D be [0, 1, 1, 1, 1, 2, 2, 2, 2, 2, 2, 3; int(0..11)]
